nSpots = 10;
SYMB = {'天','泽','火','雷','风','水','山','地'}; % name them properly !

group = [{1, 4, 6}, {1, 2, 6, 7}, {1, 3, 6, 8}, {1, 2, 3}, {2, 9, 10}, {5, 6, 8, 10}, {7, 8, 10}, {1, 3, 5}];
% groups of spots grouped by Bagua properties.

damage = [10, 8, 4, 2, 6, 9, 5, 3, 8, 10];

% reward of attacking spots